NAME : speedup30
TYPE : TSP
DIMENSION : 30
EDGE_WEIGHT_TYPE : EUC_2D
NODE_COORD_SECTION
1 48 426
2 105 471
3 73 328
4 141 77
5 466 487
6 157 268
7 29 320
8 247 238
9 207 101
10 41 238
11 124 248
12 408 4
13 237 476
14 205 494
15 388 474
16 431 330
17 123 149
18 431 421
19 422 6
20 128 66
21 239 370
22 173 279
23 371 61
24 410 276
25 64 321
26 392 165
27 5 214
28 374 418
29 115 340
30 33 276
EOF
